27983
0 0 1 1 1 0 1 0 0 1 1 0 0 1 0 0 1 0 0 0 0 0 1 1 1 1 0 1 1 0 
22 6 2 22 2 6 2 27 22 28 4 28 13 13 28 27 3 10 22 27 27 16 23 24 10 27 27 28 4 2 6 6 4 16 27 6 10 9 24 16 27 9 6 4 9 4 13 16 28 10 24 16 24 16 9 6 25 9 22 25 4 2 25 9 13 25 23 10 28 25 25 6 6 9 23 23 10 23 9 16 10 10 9 25 4 13 6 2 27 25 28 6 25 25 2 3 27 6 2 28 28 16 25 27 4 24 4 24 22 3 6 4 27 6 6 9 28 25 10 9 9 25 28 6 9 16 2 25 4 28 28 24 25 10 23 9 3 3 28 10 6 22 28 25 25 2 24 16 27 25 24 10 23 27 13 28 2 16 3 13 13 27 10 24 23 27 23 4 3 16 23 9 28 10 4 2 24 10 4 10 2 16 2 6 6 9 28 23 27 2 2 16 4 4 25 28 27 2 10 28 

Total Run Time: 342237 ms.
